param set_len = 10;
param target_sum = 2636521160;
param values := [1] 134567629 [2] 439849028 [3] 761379534 [4] 599735669 [5] 141958711 [6] 98923959 [7] 281944265 [8] 1056676681 [9] 930173532 [10] 863469111 ;
